(declare-fun M () Int)
(declare-fun N () Int)
(declare-fun k () Int)

(assert (and
  (forall ((j_1 Int) (m_0 Int))
    (or
      (not (<= (+ k 2) j_1))
      (and
        (or
          (not (= k (+ k 1)))
          (not (= k j_1))
        )
        (or
          (not (<= m_0 (- M 1)))
          (not (= k (+ k 1)))
          (not (<= 0 m_0))
        )
      )
      (not (<= j_1 (- N 1)))
      (not (<= 0 m_0))
      (not (<= m_0 (- M 1)))
    )
  )
  (and
    (<= 1 (- M 1))
    (<= (+ k 2) (- N 1))
    (<= 1 (- N 1))
    (<= 0 k)
    (<= (+ k 1) (- N 1))
  )
  (forall ((j_0 Int))
    (or
      (not (<= (+ k 1) j_0))
      (not (= k (+ k 1)))
      (not (<= j_0 (- N 1)))
      (not (= j_0 (+ k 1)))
    )
  )
  (not (= k (+ k 1)))
  (forall ((j_0 Int) (m_1 Int))
    (or
      (not (<= 0 m_1))
      (not (<= m_1 (- M 1)))
      (not (<= (+ k 1) j_0))
      (and
        (or
          (not (= k (+ k 1)))
          (not (= j_0 (+ k 1)))
        )
        (or
          (not (<= 0 m_1))
          (not (<= m_1 (- M 1)))
          (not (= k (+ k 1)))
        )
      )
      (not (<= j_0 (- N 1)))
    )
  )
  (forall ((j_0 Int) (j_1 Int))
    (or
      (not (<= (+ k 2) j_1))
      (not (= j_0 j_1))
      (not (<= j_1 (- N 1)))
      (not (<= (+ k 1) j_0))
      (not (= k (+ k 1)))
      (not (<= j_0 (- N 1)))
    )
  )
  (forall ((j_0 Int) (m_0 Int))
    (or
      (not (<= 0 m_0))
      (not (<= m_0 (- M 1)))
      (not (<= (+ k 1) j_0))
      (not (= k (+ k 1)))
      (not (<= j_0 (- N 1)))
      (not (= j_0 (+ k 1)))
    )
  )
  (forall ((j_0 Int) (j_1 Int) (m_0 Int))
    (or
      (not (<= (+ k 2) j_1))
      (and
        (or
          (not (<= m_0 (- M 1)))
          (not (= j_0 j_1))
          (not (<= 0 m_0))
        )
        (or
          (not (= k (+ k 1)))
          (not (= j_0 j_1))
        )
      )
      (not (<= j_1 (- N 1)))
      (not (<= 0 m_0))
      (not (<= m_0 (- M 1)))
      (not (<= (+ k 1) j_0))
      (not (<= j_0 (- N 1)))
    )
  )
  (forall ((m_1 Int))
    (or
      (not (<= 0 m_1))
      (not (<= m_1 (- M 1)))
      (not (= k (+ k 1)))
    )
  )
  (forall ((j_0 Int) (j_1 Int) (m_0 Int) (m_1 Int))
    (or
      (not (<= (+ k 2) j_1))
      (not (<= m_1 (- M 1)))
      (not (<= 0 m_1))
      (not (= j_0 j_1))
      (not (<= j_1 (- N 1)))
      (not (<= 0 m_0))
      (not (<= m_0 (- M 1)))
      (not (<= (+ k 1) j_0))
      (not (= m_0 m_1))
      (not (<= j_0 (- N 1)))
    )
  )
  (forall ((j_0 Int) (m_0 Int) (m_1 Int))
    (or
      (not (<= 0 m_1))
      (not (<= m_1 (- M 1)))
      (not (<= 0 m_0))
      (not (<= m_0 (- M 1)))
      (not (<= (+ k 1) j_0))
      (and
        (or
          (not (= m_0 m_1))
          (not (= j_0 (+ k 1)))
        )
        (or
          (not (= m_0 m_1))
          (not (= k (+ k 1)))
        )
      )
      (not (<= j_0 (- N 1)))
    )
  )
  (forall ((j_0 Int) (m_0 Int))
    (or
      (not (<= 0 m_0))
      (not (<= m_0 (- M 1)))
      (not (<= (+ k 1) j_0))
      (not (<= j_0 (- N 1)))
      (and
        (or
          (not (= k (+ k 1)))
          (not (= j_0 (+ k 1)))
        )
        (or
          (not (<= m_0 (- M 1)))
          (not (= j_0 (+ k 1)))
          (not (<= 0 m_0))
        )
      )
    )
  )
  (forall ((j_0 Int) (j_1 Int) (m_1 Int))
    (or
      (not (<= (+ k 2) j_1))
      (not (<= m_1 (- M 1)))
      (not (<= 0 m_1))
      (not (<= j_1 (- N 1)))
      (and
        (or
          (not (= k (+ k 1)))
          (not (= j_0 j_1))
        )
        (or
          (not (<= 0 m_1))
          (not (<= m_1 (- M 1)))
          (not (= j_0 j_1))
        )
      )
      (not (<= (+ k 1) j_0))
      (not (<= j_0 (- N 1)))
    )
  )
  (forall ((j_1 Int))
    (or
      (not (<= (+ k 2) j_1))
      (not (= k (+ k 1)))
      (not (<= j_1 (- N 1)))
      (not (= k j_1))
    )
  )
  (forall ((j_1 Int) (m_0 Int) (m_1 Int))
    (or
      (not (<= 0 m_1))
      (not (<= m_1 (- M 1)))
      (not (<= (+ k 2) j_1))
      (not (<= j_1 (- N 1)))
      (and
        (or
          (not (= m_0 m_1))
          (not (= k j_1))
        )
        (or
          (not (= m_0 m_1))
          (not (= k (+ k 1)))
        )
      )
      (not (<= 0 m_0))
      (not (<= m_0 (- M 1)))
    )
  )
  (forall ((j_1 Int) (m_1 Int))
    (or
      (not (<= (+ k 2) j_1))
      (not (<= m_1 (- M 1)))
      (not (<= 0 m_1))
      (not (<= j_1 (- N 1)))
      (and
        (or
          (not (= k (+ k 1)))
          (not (= k j_1))
        )
        (or
          (not (<= 0 m_1))
          (not (<= m_1 (- M 1)))
          (not (= k j_1))
        )
      )
    )
  )
  (forall ((j_1 Int) (m_1 Int))
    (or
      (not (<= (+ k 2) j_1))
      (not (<= m_1 (- M 1)))
      (not (<= 0 m_1))
      (not (<= j_1 (- N 1)))
      (not (= k j_1))
      (not (= k (+ k 1)))
    )
  )
  (forall ((m_0 Int))
    (or
      (not (<= m_0 (- M 1)))
      (not (= k (+ k 1)))
      (not (<= 0 m_0))
    )
  )
  (forall ((m_0 Int) (m_1 Int))
    (or
      (not (<= 0 m_1))
      (not (<= m_1 (- M 1)))
      (not (<= 0 m_0))
      (not (<= m_0 (- M 1)))
      (not (= m_0 m_1))
      (not (= k (+ k 1)))
    )
  )
))

(check-sat)